[ Title ]
図11相当・BT（コンクリ60+ローム220）+ He-3/SUS304 検出器
BT slab with He-3 proportional counter

[ Parameters ]
 icntl    =   0
 maxcas   = 10000
 maxbch   =   12
 e-mode   =   2
 irqmd    =   1
 negs     =   2
 igamma   =   1
 itall    =   1
 mdbatima = 3000
 maxbnk   = 100000
 iMeVperU =   1
 esmax    = 100000000.
 emin(12) = 1.0
 emin(13) = 1.0
 emin(15) = 1.0e-3
 emin(16) = 1.0e-3
 emin(17) = 1.0e-3
 emin(18) = 1.0e-3
 emin(19) = 1.0e-3

set:c1[450.0]
set:c2[100.0]
set:c3[60.0]
set:c4[220.0]

[ Source ]
  totfact = pi*c1**2
 infl:{source.inp}
     proj = neutron

[ Material ]
m1
  N  0.7553
  O  0.2318
  Ar 0.0129

m2
  H     -0.023
  C     -0.0023
  O     -1.22
  Na    -0.0368
  Mg    -0.005
  Al    -0.078
  Si    -0.775
  K     -0.0299
  Ca    -0.1
  Fe    -0.032

m3
  H     -0.02
  C     -0.02
  O     -0.50
  Na    -0.01
  Mg    -0.02
  Al    -0.07
  Si    -0.27
  K     -0.02
  Ca    -0.03
  Fe    -0.04

m5
  3He  1.0

m6
  Fe 70
  Cr 18
  Ni  9
  Mn  2
  Si  1

[ Surface ]
  1   so   0.001
 11   rcc  0  -39.53/2  0   0  39.53  0   2.54
 12   rcc  0  -39.93/2  0   0  39.93  0   2.74
  2   so   c2
  3   so   c2+c3
  4   so   c2+c3+c4
  5   so   c1

[ Cell ]
  1   5  -0.00124   -11
  2   6  -8.0        11 -12
 10   1  -1.205e-3   -2  12  1
 20   2  -2.302       2 -3
 25   3  -1.35        3 -4
 30   1  -1.205e-3    4 -5
 99  -1               5

[ T-Deposit ]
    title = He-3 付与エネルギー（検出器応答）
     mesh =  reg
      reg =  1
   output = deposit
   e-type =    2
       ne =   75
     emin =    0
     emax =  1.5
     file = de.out
     axis =  eng
     unit =    3
   epsout =    1
   dresol = 0.05

[ T-Track ]
    title = He-3 内 中性子フラックス
     mesh =  reg
      reg =  1
   e-type =    3
       ne =   80
     emin =  1.0e-9
     emax =  1.0e4
     unit =    1
     axis =  eng
     file = neutron_he3.out
     part = neutron
   epsout =    1

[ End ]
