[ Title ]
Site model BT: loam 220 cm / concrete 60 cm, room 3x3 m, case mum (seed 1017)

[ Parameters ]
 icntl    =        0
 maxcas   =      450
 maxbch   =        1
 rseed    =   1017.0
 negs     =        1
 emin(12) =      5.0
 emin(13) =      5.0
 emin(14) =      5.0
 ipnint   =        1
 imuint   =        1
 maxbnk   =   200000

set: c1[1600.]
set: c2[2200.]
set: c3[1500.]
set: c4[1550.]

[ Source ]
  totfact = -pi*c1**2
 infl:{source.inp}
     proj = muon-

[ Material ]
mat[1]
     N  -0.7553
     O  -0.2318
    Ar  -0.0129
mat[2]
     H  -0.0100
     C  -0.0010
     O  -0.5290
    Na  -0.0160
    Mg  -0.0020
    Al  -0.0340
    Si  -0.3370
     K  -0.0130
    Ca  -0.0440
    Fe  -0.0140
mat[3]
     H  -0.0659
     O  -0.6815
    Na  -0.0050
    Mg  -0.0100
    Al  -0.0650
    Si  -0.1050
     K  -0.0050
    Ca  -0.0150
    Ti  -0.0050
    Fe  -0.0425

[ Surface ]
  10   so   c3
  12   so   c2
  13   so   c4
  50   rpp  -800.0 800.0  -800.0 800.0   50.0  250.0
   20   pz       0.000
   21   pz     -44.000
   22   pz     -88.000
   23   pz    -132.000
   24   pz    -176.000
   25   pz    -220.000
   26   pz    -250.000
   27   pz    -280.000
   28   pz    -330.000
   29   pz    -380.000
   30   pz    -430.000
   31   pz    -480.000
   32   pz    -530.000
   33   pz    -580.000
   34   pz    -630.000
   35   pz    -680.000
   36   pz    -730.000
   37   pz    -780.000
   38   pz    -830.000
   39   pz    -880.000
  60   rpp  -150.0 150.0  -1000.0 1000.0  -480.000 -280.000
  61   rpp  -150.0 150.0  -1000.0 1000.0  -580.000 -480.000

[ Cell ]
  100    1 -1.205e-3  -10   20  50
  111    1 -1.205e-3  -50
  201    3 -1.350  -10  -20  21
  202    3 -1.350  -10  -21  22
  203    3 -1.350  -10  -22  23
  204    3 -1.350  -10  -23  24
  205    3 -1.350  -10  -24  25
  206    2 -2.300  -10  -25  26
  207    2 -2.300  -10  -26  27
  208    2 -2.300  -10  -27  28  60 61
  209    2 -2.300  -10  -28  29  60 61
  210    2 -2.300  -10  -29  30  60 61
  211    2 -2.300  -10  -30  31  60 61
  212    2 -2.300  -10  -31  32  60 61
  213    2 -2.300  -10  -32  33  60 61
  214    2 -2.300  -10  -33  34  60 61
  215    2 -2.300  -10  -34  35  60 61
  216    2 -2.300  -10  -35  36  60 61
  217    2 -2.300  -10  -36  37  60 61
  218    2 -2.300  -10  -37  38  60 61
  219    2 -2.300  -10  -38  39  60 61
  220    2 -2.300  -10  -39
  300    1 -1.205e-3  -60
  301    1 -1.205e-3  -61
  900    0             10 -12   20
  901    0             10 -13  -20
  902    0             13 -12  -20
  999   -1             12

[ Volume ]
   reg          vol
   111    5.120e+08
   300    1.2000e+08
   301    6.0000e+07

[ Importance ]
 part = muon+ muon-
  reg   imp
  901   0.0

[ T-Track ]
    title = Flux spectrum in open air above ground
     mesh =  reg
      reg =  111
   e-type =    3
       ne =   60
     emin =  1.0e-10
     emax =  1.0e+5
     unit =    1
     axis =  eng
     file = air_spec.out
     part =  neutron  muon-  muon+  proton
   epsout =    0

[ T-Track ]
    title = Flux spectrum in room air (upper 2 m, lower 1 m)
     mesh =  reg
      reg =  300 301
   e-type =    3
       ne =   60
     emin =  1.0e-10
     emax =  1.0e+5
     unit =    1
     axis =  eng
     file = room_spec.out
     part =  neutron  muon-  muon+  proton
   epsout =    0

[ End ]
