[ Title ]
He-3 tube response, E = 2.5300e-08 MeV (seed 202)

[ Parameters ]
 icntl    =        0
 maxcas   =   150000
 maxbch   =        1
 rseed    =    202.0
 emin(2)  =  1.0e-10
 dmax(2)  =     20.0
 emin(14) =   1000.0

[ Source ]
 <source> = 1.0
   s-type = 9
     proj = neutron
       x0 = 0.000
       y0 = 0.0
       z0 = 0.0
       r1 = 35.0
       r2 = 35.0
      dir = -all
       e0 = 2.530000e-08
 <source> = 1.0
   s-type = 9
     proj = neutron
       x0 = 200.000
       y0 = 0.0
       z0 = 0.0
       r1 = 44.0
       r2 = 44.0
      dir = -all
       e0 = 2.530000e-08
 <source> = 1.0
   s-type = 9
     proj = neutron
       x0 = 400.000
       y0 = 0.0
       z0 = 0.0
       r1 = 22.0
       r2 = 22.0
      dir = -all
       e0 = 2.530000e-08
 <source> = 1.0
   s-type = 9
     proj = neutron
       x0 = 600.000
       y0 = 0.0
       z0 = 0.0
       r1 = 27.0
       r2 = 27.0
      dir = -all
       e0 = 2.530000e-08

[ Material ]
mat[1]
     N  -0.7553
     O  -0.2318
    Ar  -0.0129
mat[5]
   3He   1.0
mat[6]
    Fe  70
    Cr  18
    Ni   9
    Mn   2
    Si   1
mat[7]
     H   2
     C   1
MT7  poly.20t

[ Mat Name Color ]
   mat     name       size  color
     1     Air         1.0  yellowgreen
     5     He3         1.0  pink
     6     SUS         1.0  gray
     7     PE          1.0  cyan

[ Surface ]
  101  rcc  0.000 0 -32.800  0 0 56.000  4.800
  102  rcc  0.000 0 23.200  0 0 9.600  4.800
  103  rcc  0.000 0 -33.000  0 0 66.000  5.000
  109  s  0.000 0 0  36.0
  201  rcc  200.000 0 -33.800  0 0 56.000  4.800
  202  rcc  200.000 0 22.200  0 0 9.600  4.800
  203  rcc  200.000 0 -34.000  0 0 66.000  5.000
  204  rcc  200.000 0 -34.000  0 0 68.000  7.500
  205  rcc  200.000 0 -40.000  0 0 80.000  14.500
  209  s  200.000 0 0  45.0
  301  rcc  400.000 0 -19.565  0 0 31.000  2.540
  302  rcc  400.000 0 11.435  0 0 8.130  2.540
  303  rcc  400.000 0 -19.765  0 0 39.530  2.740
  309  s  400.000 0 0  23.0
  401  rcc  600.000 0 -19.565  0 0 31.000  2.540
  402  rcc  600.000 0 11.435  0 0 8.130  2.540
  403  rcc  600.000 0 -19.765  0 0 39.530  2.740
  405  rcc  600.000 0 -24.765  0 0 49.530  7.740
  409  s  600.000 0 0  28.0

[ Cell ]
  101  5 -0.001254  -101
  102  5 -0.001254  -102
  103  6 -8.0  -103 101 102
  109  0  -109 103
  201  5 -0.001254  -201
  202  5 -0.001254  -202
  203  6 -8.0  -203 201 202
  204  1 -0.001205  -204 203
  205  7 -0.95  -205 204
  209  0  -209 205
  301  5 -0.001254  -301
  302  5 -0.001254  -302
  303  6 -8.0  -303 301 302
  309  0  -309 303
  401  5 -0.001254  -401
  402  5 -0.001254  -402
  403  6 -8.0  -403 401 402
  405  7 -0.95  -405 403
  409  0  -409 405
  999  -1  109 209 309 409

[ Volume ]
   reg   vol
  101   1.0
  201   1.0
  301   1.0
  401   1.0

[ T-Track ]
    title = Neutron track length in active He-3 gas
     mesh =  reg
      reg =  101 201 301 401
   e-type =    3
       ne =  130
     emin =  1.0e-10
     emax =  1.0e+3
     unit =    1
     axis =  eng
     file = gas_track.out
     part =  neutron
   epsout =    0

[ End ]
