[ Title ]
Site model KEKBdry: loam_dry 350 cm / joso_dry 200 cm / shimosa_dry 120 cm / concrete 80 cm, room 3x3 m, case mum (seed 1001)

[ Parameters ]
 icntl    =        0
 maxcas   =      450
 maxbch   =        1
 rseed    =   1001.0
 negs     =        1
 emin(12) =      5.0
 emin(13) =      5.0
 emin(14) =      5.0
 ipnint   =        1
 imuint   =        1
 maxbnk   =   200000

set: c1[1600.]
set: c2[2200.]
set: c3[1500.]
set: c4[1550.]

[ Source ]
  totfact = -pi*c1**2
 infl:{source.inp}
     proj = muon-

[ Material ]
mat[1]
     N  -0.7553
     O  -0.2318
    Ar  -0.0129
mat[2]
     H  -0.0100
     C  -0.0010
     O  -0.5290
    Na  -0.0160
    Mg  -0.0020
    Al  -0.0340
    Si  -0.3370
     K  -0.0130
    Ca  -0.0440
    Fe  -0.0140
mat[6]
     H  -0.0200
     O  -0.5000
    Na  -0.0100
    Mg  -0.0200
    Al  -0.0700
    Si  -0.2700
     K  -0.0200
    Ca  -0.0300
    Fe  -0.0400
     C  -0.0200
mat[7]
     H  -0.0200
     O  -0.5000
    Na  -0.0100
    Mg  -0.0200
    Al  -0.0700
    Si  -0.2700
     K  -0.0200
    Ca  -0.0300
    Fe  -0.0400
     C  -0.0200
mat[8]
     H  -0.0200
     O  -0.5000
    Na  -0.0100
    Mg  -0.0200
    Al  -0.0700
    Si  -0.2700
     K  -0.0200
    Ca  -0.0300
    Fe  -0.0400
     C  -0.0200

[ Surface ]
  10   so   c3
  12   so   c2
  13   so   c4
  50   rpp  -800.0 800.0  -800.0 800.0   50.0  250.0
   20   pz       0.000
   21   pz     -50.000
   22   pz    -100.000
   23   pz    -150.000
   24   pz    -200.000
   25   pz    -250.000
   26   pz    -300.000
   27   pz    -350.000
   28   pz    -400.000
   29   pz    -450.000
   30   pz    -500.000
   31   pz    -550.000
   32   pz    -590.000
   33   pz    -630.000
   34   pz    -670.000
   35   pz    -710.000
   36   pz    -750.000
   37   pz    -800.000
   38   pz    -850.000
   39   pz    -900.000
   40   pz    -950.000
   41   pz   -1000.000
   42   pz   -1050.000
   43   pz   -1100.000
   44   pz   -1150.000
   45   pz   -1200.000
   46   pz   -1250.000
   47   pz   -1300.000
   48   pz   -1350.000
  60   rpp  -150.0 150.0  -1000.0 1000.0  -950.000 -750.000
  61   rpp  -150.0 150.0  -1000.0 1000.0  -1050.000 -950.000

[ Cell ]
  100    1 -1.205e-3  -10   20  50
  111    1 -1.205e-3  -50
  201    6 -1.350  -10  -20  21
  202    6 -1.350  -10  -21  22
  203    6 -1.350  -10  -22  23
  204    6 -1.350  -10  -23  24
  205    6 -1.350  -10  -24  25
  206    6 -1.350  -10  -25  26
  207    6 -1.350  -10  -26  27
  208    7 -1.650  -10  -27  28
  209    7 -1.650  -10  -28  29
  210    7 -1.650  -10  -29  30
  211    7 -1.650  -10  -30  31
  212    8 -1.850  -10  -31  32
  213    8 -1.850  -10  -32  33
  214    8 -1.850  -10  -33  34
  215    2 -2.300  -10  -34  35
  216    2 -2.300  -10  -35  36
  217    2 -2.300  -10  -36  37  60 61
  218    2 -2.300  -10  -37  38  60 61
  219    2 -2.300  -10  -38  39  60 61
  220    2 -2.300  -10  -39  40  60 61
  221    2 -2.300  -10  -40  41  60 61
  222    2 -2.300  -10  -41  42  60 61
  223    2 -2.300  -10  -42  43  60 61
  224    2 -2.300  -10  -43  44  60 61
  225    2 -2.300  -10  -44  45  60 61
  226    2 -2.300  -10  -45  46  60 61
  227    2 -2.300  -10  -46  47  60 61
  228    2 -2.300  -10  -47  48  60 61
  229    2 -2.300  -10  -48
  300    1 -1.205e-3  -60
  301    1 -1.205e-3  -61
  900    0             10 -12   20
  901    0             10 -13  -20
  902    0             13 -12  -20
  999   -1             12

[ Volume ]
   reg          vol
   111    5.120e+08
   300    1.2000e+08
   301    6.0000e+07

[ Importance ]
 part = muon+ muon-
  reg   imp
  901   0.0

[ T-Track ]
    title = Flux spectrum in open air above ground
     mesh =  reg
      reg =  111
   e-type =    3
       ne =   60
     emin =  1.0e-10
     emax =  1.0e+5
     unit =    1
     axis =  eng
     file = air_spec.out
     part =  neutron  muon-  muon+  proton
   epsout =    0

[ T-Track ]
    title = Flux spectrum in room air (upper 2 m, lower 1 m)
     mesh =  reg
      reg =  300 301
   e-type =    3
       ne =   60
     emin =  1.0e-10
     emax =  1.0e+5
     unit =    1
     axis =  eng
     file = room_spec.out
     part =  neutron  muon-  muon+  proton
   epsout =    0

[ End ]
