[ Title ]
linac 天井コンクリ150 cm + D2（大径・PE 容器）

[ Parameters ]
 icntl    =   0
 maxcas   = 8000
 maxbch   = 10
 e-mode   =   2
 irqmd    =   1
 negs     =   2
 igamma   =   1
 itall    =   1
 mdbatima = 3000
 maxbnk   = 100000
 iMeVperU =   1
 esmax    = 100000000.
 emin(12) = 1.0
 emin(13) = 1.0
 emin(15) = 1.0e-3
 emin(16) = 1.0e-3
 emin(17) = 1.0e-3
 emin(18) = 1.0e-3
 emin(19) = 1.0e-3

$ c1=部屋半幅 c11=線源面半幅（検出器付近） c2=室内高 c3=コンクリ…
$ c8=c2+c3, c9=c8+c4, c10=c9+c5, c7=線源高さ
set: c1[400.0] c11[30.0] c2[250.0] c3[150.0] c4[0.0] c5[0.0]
set: c8[c2+c3] c9[c8+c4] c10[c9+c5] c7[c10+50.0]
$ 検出器 D2（大径・PE 容器）: 高さ=66.0 cm OD=10.0 cm（z 軸直立）
$ 信管 半径=3.8 cm 占領長=14.0 cm（He 内径 9.6 cm より小）
$ 有効 He-3 長 ~52.0 cm
set: c31[66.0] c32[5.0] c33[0.2] c34[c32-c33]
set: c35[14.0] c36[3.8]
set: c37[0.0] c38[c31] c39[c38-c35]
set: c41[80.0] c42[29.0/2] c43[15.0/2]
set: c44[74.0]

[ Source ]
  totfact = -(2*c11)**2
 infl:{source_ceiling.inp}
     proj = neutron

[ Material ]
m1
  N  0.7553
  O  0.2318
  Ar 0.0129

m2
  H     -0.023
  C     -0.0023
  O     -1.22
  Na    -0.0368
  Mg    -0.005
  Al    -0.078
  Si    -0.775
  K     -0.0299
  Ca    -0.1
  Fe    -0.032

m3
  H     -0.02
  C     -0.02
  O     -0.50
  Na    -0.01
  Mg    -0.02
  Al    -0.07
  Si    -0.27
  K     -0.02
  Ca    -0.03
  Fe    -0.04

m4
  H     -0.02
  C     -0.02
  O     -0.50
  Na    -0.01
  Mg    -0.02
  Al    -0.07
  Si    -0.27
  K     -0.02
  Ca    -0.03
  Fe    -0.04

m5
  3He  1.0

m6
  Fe 70
  Cr 18
  Ni  9
  Mn  2
  Si  1

m7
  H  2
  C  1

[ Surface ]
  1   so   500.0
 11   rcc  0  0  c37   0  0  c31  c34
 12   rcc  0  0  c37   0  0  c31  c32
 13   pz   c39
 14   rcc  0  0  c39   0  0  c35  c36
 15   pz   c38
 17   rcc  0  0  c37   0  0  c41  c42
 18   rcc  0  0  c37   0  0  c41  c43
 16   pz   c44
 19   pz   c41
 20   pz   0.0
 21   pz   c2
 22   pz   c8
 23   pz   c9
 24   pz   c10
 30   rpp  -c1  c1  -c1  c1  -50.0  c7+100.0
 50   rpp  -c1  c1  -c1  c1  0.0  c2

[ Cell ]
  1   5  -0.00124   -11  -13  20 -15
  2   6  -8.0        11 -12  20 -13
  6   6  -8.0        11 -12  13  14 -15
  4   0               -14  13 -15
  5   7  -0.95        17 -18  20 -19
  7   7  -0.95       -18  20  16 -19
  8   0               -18  12  20 -16
  3   0               -50  20 -21
 20   2  -2.302      -30  21 -22
 90   0               -30  21  22
 98   3  -1.35       -30 -20
 99  -1               30

[ T-Deposit ]
    title = He-3 有効ガス 付与エネルギー（信管側除く）
     mesh =  reg
      reg =  1
   output = deposit
   e-type =    2
       ne =   75
     emin =    0
     emax =  1.5
     file = de.out
     axis =  eng
     unit =    3
   epsout =    1
   dresol = 0.05

[ T-Track ]
    title = He-3 有効ガス 内中性子フラックス
     mesh =  reg
      reg =  1
   e-type =    3
       ne =   80
     emin =  1.0e-9
     emax =  1.0e4
     unit =    1
     axis =  eng
     file = neutron_he3.out
     part = neutron
   epsout =    1

[ End ]
