[ Title ]
図11相当・地上 + He-3/SUS304 検出器（基準）
Open-sky with He-3 proportional counter at center

[ Parameters ]
 icntl    =   0
 maxcas   = 20000
 maxbch   =   20
 e-mode   =   2
 irqmd    =   1
 negs     =   2
 igamma   =   1
 itall    =   1
 mdbatima = 3000
 maxbnk   = 100000
 iMeVperU =   1
 esmax    = 100000000.
 emin(12) = 1.0
 emin(13) = 1.0
 emin(15) = 1.0e-3
 emin(16) = 1.0e-3
 emin(17) = 1.0e-3
 emin(18) = 1.0e-3
 emin(19) = 1.0e-3

set:c1[200.0]

[ Source ]
  totfact = pi*c1**2
 infl:{source.inp}
     proj = neutron

[ Material ]
m1
  N  0.7553
  O  0.2318
  Ar 0.0129

$ m5: He-3 ガス（既存 he3_sus304 と同じ）
m5
  3He  1.0

$ m6: SUS304
m6
  Fe 70
  Cr 18
  Ni  9
  Mn  2
  Si  1

[ Surface ]
  1   so   0.001
 11   rcc  0  -39.53/2  0   0  39.53  0   2.54
 12   rcc  0  -39.93/2  0   0  39.93  0   2.74
  2   so   c1

[ Cell ]
  1   5  -0.00124   -11              $ He-3 感応部
  2   6  -8.0        11 -12          $ SUS304 壁
 10   1  -1.205e-3   -2  12  1       $ 空気
 99  -1               2

[ T-Deposit ]
    title = He-3 付与エネルギー（検出器応答）
     mesh =  reg
      reg =  1
   output = deposit
   e-type =    2
       ne =   75
     emin =    0
     emax =  1.5
     file = de.out
     axis =  eng
     unit =    3
   epsout =    1
   dresol = 0.05

[ T-Track ]
    title = He-3 内 中性子フラックス
     mesh =  reg
      reg =  1
   e-type =    3
       ne =   80
     emin =  1.0e-9
     emax =  1.0e4
     unit =    1
     axis =  eng
     file = neutron_he3.out
     part = neutron
   epsout =    1

[ End ]
