[ Title ]
KEK 電子陽電子入射器（linac, H02）に降り注ぐ宇宙線のシミュレーション
Cosmic-ray field on/under the KEK electron-positron injector linac
ジオメトリ出典: 05_施設図/Linac.pdf 図1.27（下流部標準断面, PDF p.34）ほか
詳細と仮定: ../linac_構成と遮蔽.md

[ Parameters ]
 icntl    =        0     $ 0:通常計算  8:xyzメッシュ gshow のジオメトリ確認
 maxcas   =      500     $ 1バッチあたりのヒストリー数
 maxbch   =       10     $ 合計 5000 ヒストリー ≈ 150 秒。
                         $ web版の実行時間制限は 300 秒なのでこれが上限の目安。
                         $ トークン（PHITS_WEB_TOKEN）かローカル PHITS があれば増やす
 e-mode   =        2     $ Event generator mode ver.2
 irqmd    =        1     $ JQMD-2.0
 negs     =        2     $ 高エネルギー EGS5 モード
 mdbatima =     3000     $ ATIMA テーブル
 maxbnk   =   100000     $ バンクメモリ
 iMeVperU =        1     $ 宇宙線は MeV/u 表示
 emin(12) =      1.0     $ 電子カットオフ [MeV]
 emin(13) =      1.0     $ 陽電子カットオフ [MeV]

$ === 寸法 [cm] ==============================================================
$  z = 0 を GL（＝クライストロンギャラリー床）にとる。y はビーム軸方向。
$  ギャラリー室内 8.65 m(W) x 5.49 m(H)、壁 20 cm、屋根 30 cm
$  GL から下 2.5 m がコンクリート（＝ギャラリー床＝トンネル天井）
$  トンネル室 5.0 m(W) x 3.14 m(H)、ビームライン z = -430 cm
$ 球は3枚: モデル球 c3 ＜ 線源球 c1 ＜ 世界球 c2
$   c3 : 大気・地層・建屋を入れる球（全構造物がこの中に入ること）
$   c1 : 宇宙線線源球。粒子はこの球面上に発生するので、[Surface] のどの面とも
$        半径を一致させないこと（一致させると lost particle、outer void と
$        一致させると粒子が捨てられてフラックスが数十%過小になる）
$   c2 : 世界球。c1 より外側。c3〜c2 は真空にしておく
set: c1[1600.]           $ 線源球の半径（面と一致させない）
set: c2[2200.]           $ 世界球の半径
set: c3[1500.]           $ モデル球の半径

[ Source ]
  totfact = -pi*c1**2    $ 負値: 各粒子から等数サンプリングしウェイトで強度調整
                         $ （中性子の統計を稼ぐため。規格化は [/cm2/s] のまま）
 infl:{source.inp}
     proj = neutron
 infl:{source.inp}
     proj = muon+
 infl:{source.inp}
     proj = muon-
 infl:{source.inp}
     proj = photon

[ Material ]
$ --- mat[1] 空気（乾燥, 海面）rho = 1.205e-3 g/cm3、質量比 -----------------
mat[1]
     N  -0.7553
     O  -0.2318
    Ar  -0.0129
$ --- mat[2] 普通コンクリート rho = 2.35 g/cm3 -------------------------------
$     KEK 標準密度（施設別_コンクリート密度組成推定.csv, Linac.pdf 表2.7 p.67-68）
$     組成は ANL-5800 Type 02-a（04_PHITS_sim/underground_concrete250 と同じ）
mat[2]
     H  -0.023
     C  -0.0023
     O  -1.22
    Na  -0.0368
    Mg  -0.005
    Al  -0.078
    Si  -0.775
     K  -0.0299
    Ca  -0.1
    Fe  -0.032
$ --- mat[3] 関東ローム（含水 40 wt%）rho = 1.35 g/cm3 ------------------------
$     施設3D_地質層.json（0 〜 -3 m）。火山灰質の乾燥成分 60% + 水 40%
mat[3]
     H  -0.0448
     O  -0.6336
    Si  -0.1386
    Al  -0.0870
    Fe  -0.0600
    Ca  -0.0096
    Mg  -0.0078
     K  -0.0054
    Na  -0.0048
    Ti  -0.0078
$ --- mat[4] 常総粘土・下総層群（含水 20 wt%）rho = 1.65 / 1.85 g/cm3 ---------
mat[4]
     H  -0.0224
     O  -0.5488
    Si  -0.1848
    Al  -0.1160
    Fe  -0.0800
    Ca  -0.0128
    Mg  -0.0104
     K  -0.0072
    Na  -0.0064
    Ti  -0.0104

$ --- mat[5] 下総層群（組成は mat[4] と同じ、密度だけ違う）rho = 1.85 g/cm3 ------
$     同じ物質番号を違う密度で使うと PHITS が別番号を自動採番するため、明示的に分ける
mat[5]
     H  -0.0224
     O  -0.5488
    Si  -0.1848
    Al  -0.1160
    Fe  -0.0800
    Ca  -0.0128
    Mg  -0.0104
     K  -0.0072
    Na  -0.0064
    Ti  -0.0104

[ Mat Name Color ]
   mat     name       size  color
     1     Air         1.0  yellowgreen
     2     Concrete    1.0  lightgray
     3     Loam        1.0  orangeyellow
     4     Clay        1.0  mossgreen
     5     Shimousa    1.0  mossgreen

[ Surface ]
  10   so   c3                                    $ モデル球（内側に大気・地層・建屋）
  12   so   c2                                    $ 世界球（10 との間は真空。線源球 c1 はこの中）
  20   pz   0.0                                   $ GL（ギャラリー床）
  21   pz   -300.0                                $ 関東ローム底（-3 m）
  22   pz   -500.0                                $ 常総粘土底（-5 m）
$ --- 地上建屋（クライストロンギャラリー）------------------------------------
  30   rpp  -452.5 452.5  -920.0  920.0     0.0   579.0   $ 外形（壁20+屋根30）
  31   rpp  -432.5 432.5  -900.0  900.0     0.0   549.0   $ 室内空間
$ --- 地下構造（図1.27 下流部標準断面）---------------------------------------
  40   rpp  -512.5 512.5 -1000.0 1000.0  -250.0     0.0   $ 上部コンクリート 2.5 m
  41   rpp  -400.0 400.0 -1000.0 1000.0  -644.0  -250.0   $ 側壁1.5m・床0.8m
  42   rpp  -250.0 250.0  -900.0  900.0  -564.0  -250.0   $ 入射器棟トンネル室
$ --- 検出器セル（MCA 位置まわりの平均。4 m(x) x 12 m(y) x 2 m(z) の空気）----
  50   rpp  -200.0 200.0  -600.0  600.0    50.0   250.0   $ ギャラリー床上 0.5-2.5 m
  51   rpp  -200.0 200.0  -600.0  600.0  -530.0  -330.0   $ トンネル ビーム高さ ±1 m
  52   rpp   500.0 900.0  -600.0  600.0    50.0   250.0   $ 建屋脇の屋外 GL+0.5-2.5 m

[ Cell ]
$ --- 地上建屋 ---------------------------------------------------------------
  100    2 -2.35      -30  31             $ ギャラリー壁・屋根（コンクリート）
  110    1 -1.205e-3  -31  50             $ ギャラリー室内空気
  111    1 -1.205e-3  -50                 $ ギャラリー検出器位置
$ --- 地下構造 ---------------------------------------------------------------
  200    2 -2.35      -40                 $ ギャラリー床＝トンネル天井 2.5 m
  210    2 -2.35      -41  42             $ トンネル側壁・床
  220    1 -1.205e-3  -42  51             $ トンネル室内空気
  221    1 -1.205e-3  -51                 $ トンネル検出器位置（ビーム高さ）
$ --- 大気・地層 -------------------------------------------------------------
  300    1 -1.205e-3  -52                 $ 屋外検出器位置
  310    1 -1.205e-3  -10   20  30  52    $ GL より上の大気
  400    3 -1.35      -10  -20  21  40 41 $ 関東ローム    0 〜 -3 m
  410    4 -1.65      -10  -21  22  41    $ 常総粘土     -3 〜 -5 m
  420    5 -1.85      -10  -22      41    $ 下総層群     -5 m 以深
  900    0             10 -12             $ 真空シェル（線源球 c1 はこの中。物質なし）
  999   -1             12                 $ outer void

[ Volume ]
   reg          vol
   110    7.588e+08
   111    9.600e+07
   220    1.866e+08
   221    9.600e+07
   300    9.600e+07

$ ============================================================================
$  タリー
$ ============================================================================
[ T-Track ]
$ 各測定点のスペクトル
    title = Flux spectra at measurement points [1/cm2/s]
     mesh =  reg
      reg =  111 221 300 110 220
   e-type =    3          $ log メッシュ（1e-9〜1e+6 MeV を 5 bin/decade）
       ne =   75
     emin =  1.0e-9       $ 1 neV
     emax =  1.0e+6       $ 1 TeV（ミューオンの高エネルギー側まで入れる）
     unit =    1          $ [1/cm2/source] → totfact 規格化により [/cm2/s]
     axis =  eng
     file = spectrum_reg.out
     part =  neutron photon ( muon+ muon- )
   epsout =    1

[ T-Track ]
$ 深さ方向分布
    title = Neutron flux vs depth, column above tunnel
     mesh =  xyz
   x-type =    2
       nx =    1
     xmin = -250.0
     xmax =  250.0
   y-type =    2
       ny =    1
     ymin = -300.0
     ymax =  300.0
   z-type =    2
       nz =   64
     zmin = -1000.0
     zmax =   600.0
   e-type =    1
       ne =    3
            1.0e-9  1.0e-6  1.0e-1  1.0e+6
     unit =    1
     axis =    z
     file = depth_profile.out
     part =  neutron
   epsout =    1

[ T-Track ]
$ 降り注ぐ中性子の2次元分布
    title = Cosmic-ray neutron flux, xz section
     mesh =  xyz
   x-type =    2
       nx =  120
     xmin = -1200.0
     xmax =  1200.0
   y-type =    2
       ny =    1
     ymin = -300.0
     ymax =  300.0
   z-type =    2
       nz =  110
     zmin = -1000.0
     zmax =  1200.0
   e-type =    2
       ne =    1
     emin =  1.0e-9
     emax =  1.0e+6
     unit =    1
     axis =   xz
     file = map_xz.out
     part =  neutron
    gshow =    1
   epsout =    1

[ End ]
